findsym-output                          
   1.00000000000000     
     9.0666645830403585   -0.0095871151582292    0.0030027437026419
    -4.2171158155057960    8.0263214147142605    0.0030308346936872
    -0.2974082317760905   -0.4916196181751037    6.4416414567266767
   Mn   Cl   N    C    H 
     2     8     2     8    22
Direct
  0.9988076271734875  0.0008750964458707  0.9632376202785194
  0.0008737414912781  0.9988074524614721  0.4632370127889245
  0.7572830953680748  0.8871119624870087  0.6860099408603623
  0.8871106873146468  0.7572837699868136  0.1860101016397998
  0.1235609298756082  0.8702473053743968  0.7190611950540436
  0.8702463719587556  0.1235616614860328  0.2190635436446127
  0.1236599527883944  0.2472634207169995  0.7384513602753436
  0.2472649165591765  0.1236590108953130  0.2384516091976059
  0.4286798458115874  0.7103959949835378  0.9151234846241209
  0.7104014162967953  0.4286857624595770  0.4151293075209920
  0.3045881257222159  0.6469031357218843  0.2928147409354178
  0.6469068471674783  0.3045919308306363  0.7928190979604957
  0.2536062229287468  0.6226200372638017  0.0635799331978785
  0.6226292987978769  0.2536138840987548  0.5635838010569064
  0.1444467337966385  0.5633730288467230  0.3988179135100459
  0.5633740054028993  0.1444474287421637  0.8988174459658467
  0.4119295770078779  0.5659405630586444  0.3444192851901569
  0.5659432534014623  0.4119301455217547  0.8444240977395838
  0.3961202632033367  0.8296261168437744  0.3624439015990622
  0.8296324844134556  0.3961264366156411  0.8624539880275793
  0.1849556064757303  0.4877370368138525  0.0202030601132943
  0.4877455791624790  0.1849613261912920  0.5202055909107742
  0.1767603998493176  0.6850470827183673  0.0346791759498052
  0.6850614719545659  0.1767721859761273  0.5346831721328643
  0.0788659960055588  0.4303861403998817  0.3450744548178938
  0.4303848009730550  0.0788683533706760  0.8450708968051110
  0.0691493747175593  0.6258019166589768  0.3624284118777615
  0.6258047250469306  0.0691525863485410  0.8624274772639211
  0.1769363640968631  0.5776349701694252  0.5658860334793605
  0.5776350028543865  0.1769358748772384  0.0658853553225002
  0.3448921507060655  0.4335417113318040  0.2882267656232931
  0.4335432199762137  0.3448928600211350  0.7882300993991903
  0.4349783015125879  0.5779845017104256  0.5132317632191393
  0.5779839481778279  0.4349769928976044  0.0132375956676440
  0.5309728949449539  0.6317113383681601  0.2739011325829656
  0.6317119472618649  0.5309728981437899  0.7739040138542722
  0.3185996590091256  0.8877729908338485  0.3161636671528988
  0.8877813000309823  0.3186094812619175  0.8161762936619967
  0.5161568051618776  0.8864713780218438  0.2920951191553896
  0.8864765171114601  0.5161636217148776  0.7921057238495740
  0.4173269272475260  0.8401871278382513  0.5314111943219408
  0.8401899962432889  0.4173319674911774  0.0314220067710877
 
  0.00000000E+00  0.00000000E+00  0.00000000E+00
  0.00000000E+00  0.00000000E+00  0.00000000E+00
  0.00000000E+00  0.00000000E+00  0.00000000E+00
  0.00000000E+00  0.00000000E+00  0.00000000E+00
  0.00000000E+00  0.00000000E+00  0.00000000E+00
  0.00000000E+00  0.00000000E+00  0.00000000E+00
  0.00000000E+00  0.00000000E+00  0.00000000E+00
  0.00000000E+00  0.00000000E+00  0.00000000E+00
  0.00000000E+00  0.00000000E+00  0.00000000E+00
  0.00000000E+00  0.00000000E+00  0.00000000E+00
  0.00000000E+00  0.00000000E+00  0.00000000E+00
  0.00000000E+00  0.00000000E+00  0.00000000E+00
  0.00000000E+00  0.00000000E+00  0.00000000E+00
  0.00000000E+00  0.00000000E+00  0.00000000E+00
  0.00000000E+00  0.00000000E+00  0.00000000E+00
  0.00000000E+00  0.00000000E+00  0.00000000E+00
  0.00000000E+00  0.00000000E+00  0.00000000E+00
  0.00000000E+00  0.00000000E+00  0.00000000E+00
  0.00000000E+00  0.00000000E+00  0.00000000E+00
  0.00000000E+00  0.00000000E+00  0.00000000E+00
  0.00000000E+00  0.00000000E+00  0.00000000E+00
  0.00000000E+00  0.00000000E+00  0.00000000E+00
  0.00000000E+00  0.00000000E+00  0.00000000E+00
  0.00000000E+00  0.00000000E+00  0.00000000E+00
  0.00000000E+00  0.00000000E+00  0.00000000E+00
  0.00000000E+00  0.00000000E+00  0.00000000E+00
  0.00000000E+00  0.00000000E+00  0.00000000E+00
  0.00000000E+00  0.00000000E+00  0.00000000E+00
  0.00000000E+00  0.00000000E+00  0.00000000E+00
  0.00000000E+00  0.00000000E+00  0.00000000E+00
  0.00000000E+00  0.00000000E+00  0.00000000E+00
  0.00000000E+00  0.00000000E+00  0.00000000E+00
  0.00000000E+00  0.00000000E+00  0.00000000E+00
  0.00000000E+00  0.00000000E+00  0.00000000E+00
  0.00000000E+00  0.00000000E+00  0.00000000E+00
  0.00000000E+00  0.00000000E+00  0.00000000E+00
  0.00000000E+00  0.00000000E+00  0.00000000E+00
  0.00000000E+00  0.00000000E+00  0.00000000E+00
  0.00000000E+00  0.00000000E+00  0.00000000E+00
  0.00000000E+00  0.00000000E+00  0.00000000E+00
  0.00000000E+00  0.00000000E+00  0.00000000E+00
  0.00000000E+00  0.00000000E+00  0.00000000E+00
